130 7027
1 39 117 83 30 59 121 78 66 85 125 90 28 115 62 112 105 128 16 5 11 109 61 129 124 26 97 70 7 88 86 69 64 76 45 41 71 130 50 2 118 80 20 46 18 108 114 3 8 126 21 33 22 122 55 44 42 51 60 120 53 49 58 92 73 99 74 75 52 9 57 56 65 12 87 81 94 89 110 98 68 63 104 43 34 31 17 54 35 4 93 37 40 47 23 96 13 67 14 10 102 6 91 72 106 38 79 95 116 24 100 27 19 15 29 77 103 82 101 123 111 119 84 36 113 32 25 48 107 127 
